<number of tasks>
29

<cycle time>
33

<task times>
1 7
2 19
3 15
4 5
5 12
6 10
7 8
8 16
9 2
10 6
11 21
12 10
13 9
14 4
15 14
16 7
17 14
18 17
19 10
20 16
21 1
22 9
23 25
24 14
25 14
26 2
27 10
28 7
29 20

<precedence relations>
1,3
1,25
2,6
2,26
3,4
4,5
5,8
5,13
6,8
7,9
7,12
7,25
8,11
8,16
9,10
10,14
10,15
11,17
12,15
13,17
14,16
15,19
16,18
17,20
18,22
19,21
20,23
21,22
22,23
23,24
23,28
24,29
25,29
26,27
27,29
28,29

<setup times forward>
1,2:3
1,3:1
1,6:1
1,14:2
1,15:1
1,19:1
1,21:3
1,25:3
1,26:1
1,27:1
2,1:3
2,3:4
2,4:4
2,5:4
2,6:2
2,7:3
2,9:3
2,10:3
2,12:3
2,13:2
2,14:5
2,15:2
2,19:2
2,21:6
2,26:4
3,2:4
3,6:2
3,7:1
3,9:1
3,10:1
3,12:1
3,14:1
3,15:2
3,19:2
3,21:2
3,25:4
4,2:4
4,6:2
4,7:1
4,9:1
4,10:1
4,12:1
4,14:1
4,15:2
4,19:2
4,21:2
4,25:4
5,2:4
5,6:2
5,7:1
5,8:2
5,9:1
5,10:1
5,12:1
5,13:2
5,14:1
5,15:2
5,19:2
5,21:2
5,25:4
6,1:1
6,3:2
6,4:2
6,5:2
6,7:1
6,9:1
6,10:1
6,12:1
6,14:3
6,21:4
6,25:2
6,26:2
6,27:2
7,2:3
7,3:1
7,4:1
7,5:1
7,6:1
7,8:1
7,11:2
7,13:1
7,20:3
7,25:3
7,26:1
7,27:1
8,7:1
8,9:1
8,10:1
8,11:3
8,12:1
8,14:3
8,16:3
8,21:4
8,25:2
8,26:2
8,27:2
9,2:3
9,3:1
9,4:1
9,5:1
9,6:1
9,8:1
9,11:2
9,13:1
9,20:3
9,25:3
9,26:1
9,27:1
10,2:3
10,3:1
10,4:1
10,5:1
10,6:1
10,8:1
10,11:2
10,13:1
10,14:2
10,15:1
10,20:3
10,25:3
10,26:1
10,27:1
11,7:2
11,9:2
11,10:2
11,12:2
11,13:3
11,15:3
11,17:2
11,18:2
11,19:3
11,21:1
11,22:1
11,25:5
11,26:1
11,27:1
12,2:3
12,3:1
12,4:1
12,5:1
12,6:1
12,8:1
12,11:2
12,13:1
12,14:2
12,15:1
12,16:2
12,20:3
12,25:3
12,26:1
12,27:1
13,2:2
13,7:1
13,9:1
13,10:1
13,11:3
13,12:1
13,14:3
13,16:3
13,17:1
13,18:1
13,21:4
13,22:4
13,25:2
13,26:2
13,27:2
14,1:2
14,2:5
14,3:1
14,4:1
14,5:1
14,6:3
14,8:3
14,12:2
14,13:3
14,15:3
14,17:2
14,19:3
14,20:1
14,21:1
14,25:5
14,26:1
14,27:1
15,1:1
15,2:2
15,3:2
15,4:2
15,5:2
15,11:3
15,14:3
15,16:3
15,17:1
15,18:1
15,20:4
15,25:2
15,26:2
15,27:2
16,12:2
16,13:3
16,15:3
16,17:2
16,18:2
16,19:3
16,20:1
16,21:1
16,25:5
16,26:1
16,27:1
17,14:2
17,15:1
17,16:2
17,19:1
17,20:3
17,21:3
17,22:3
17,25:3
17,26:1
17,27:1
18,11:2
18,13:1
18,15:1
18,19:1
18,20:3
18,21:3
18,22:3
18,25:3
18,26:1
18,27:1
19,1:1
19,2:2
19,3:2
19,4:2
19,5:2
19,11:3
19,14:3
19,16:3
19,17:1
19,18:1
19,20:4
19,21:4
19,25:2
19,26:2
19,27:2
20,7:3
20,9:3
20,10:3
20,12:3
20,14:1
20,15:4
20,16:1
20,18:3
20,19:4
20,23:5
20,25:6
20,26:2
20,27:2
21,1:3
21,2:6
21,3:2
21,4:2
21,5:2
21,6:4
21,8:4
21,11:1
21,13:4
21,14:1
21,16:1
21,17:3
21,18:3
21,25:6
21,26:2
21,27:2
22,11:1
22,13:4
22,17:3
22,23:5
22,25:6
22,26:2
22,27:2
23,24:3
23,25:1
23,26:3
23,27:3
23,28:5
24,25:4
24,28:2
24,29:2
25,3:4
25,4:4
25,5:4
25,6:2
25,8:2
25,9:3
25,10:3
25,11:5
25,12:3
25,13:2
25,14:5
25,15:2
25,16:5
25,17:3
25,18:3
25,19:2
25,20:6
25,21:6
25,22:6
25,23:1
25,24:4
25,26:4
25,27:4
25,28:6
25,29:6
26,1:1
26,6:2
26,7:1
26,8:2
26,9:1
26,10:1
26,11:1
26,12:1
26,13:2
26,14:1
26,15:2
26,16:1
26,17:1
26,18:1
26,19:2
26,20:2
26,21:2
26,22:2
26,23:3
26,25:4
26,28:2
27,1:1
27,6:2
27,7:1
27,8:2
27,9:1
27,10:1
27,11:1
27,12:1
27,13:2
27,14:1
27,15:2
27,16:1
27,17:1
27,18:1
27,19:2
27,20:2
27,21:2
27,22:2
27,23:3
27,25:4
27,28:2
27,29:2
28,24:2
28,25:6
28,26:2
28,27:2

<setup times backward>
1,14:2
1,21:3
1,26:1
1,27:1
2,1:3
2,3:4
2,4:4
2,5:4
2,7:3
2,9:3
2,10:3
2,12:3
2,13:2
2,14:5
2,15:2
2,19:2
2,21:6
3,14:1
3,21:2
4,14:1
4,21:2
5,14:1
5,21:2
6,1:1
6,3:2
6,4:2
6,5:2
6,7:1
6,9:1
6,10:1
6,12:1
6,14:3
6,21:4
6,26:2
6,27:2
7,3:1
7,4:1
7,5:1
7,11:2
7,20:3
7,26:1
7,27:1
8,1:1
8,3:2
8,4:2
8,5:2
8,7:1
8,9:1
8,10:1
8,12:1
8,14:3
8,21:4
8,26:2
8,27:2
9,3:1
9,4:1
9,5:1
9,11:2
9,20:3
9,26:1
9,27:1
10,3:1
10,4:1
10,5:1
10,11:2
10,20:3
10,26:1
10,27:1
11,21:1
11,22:1
12,3:1
12,4:1
12,5:1
12,11:2
12,14:2
12,16:2
12,20:3
12,26:1
12,27:1
13,1:1
13,3:2
13,4:2
13,5:2
13,7:1
13,9:1
13,10:1
13,11:3
13,12:1
13,14:3
13,16:3
13,18:1
13,21:4
13,22:4
13,26:2
13,27:2
14,20:1
14,21:1
15,1:1
15,3:2
15,4:2
15,5:2
15,7:1
15,9:1
15,10:1
15,11:3
15,12:1
15,14:3
15,16:3
15,17:1
15,18:1
15,20:4
15,26:2
15,27:2
16,20:1
16,21:1
17,3:1
17,4:1
17,5:1
17,11:2
17,14:2
17,16:2
17,21:3
17,22:3
17,26:1
17,27:1
18,3:1
18,4:1
18,5:1
18,11:2
18,14:2
18,16:2
18,20:3
18,21:3
18,26:1
18,27:1
19,1:1
19,3:2
19,4:2
19,5:2
19,7:1
19,9:1
19,10:1
19,11:3
19,12:1
19,14:3
19,16:3
19,17:1
19,18:1
19,20:4
19,26:2
19,27:2
23,1:2
23,3:3
23,4:3
23,5:3
23,6:1
23,7:2
23,8:1
23,9:2
23,10:2
23,11:4
23,12:2
23,13:1
23,14:4
23,15:1
23,16:4
23,17:2
23,18:2
23,19:1
23,20:5
23,21:5
23,22:5
23,26:3
23,27:3
24,11:1
24,14:1
24,16:1
24,20:2
24,21:2
24,22:2
24,28:2
25,1:3
25,3:4
25,4:4
25,5:4
25,6:2
25,7:3
25,8:2
25,9:3
25,10:3
25,11:5
25,12:3
25,13:2
25,14:5
25,15:2
25,16:5
25,17:3
25,18:3
25,19:2
25,20:6
25,21:6
25,22:6
25,23:1
25,24:4
25,26:4
25,27:4
25,28:6
26,11:1
26,14:1
26,16:1
26,20:2
26,21:2
26,22:2
26,28:2
27,11:1
27,14:1
27,16:1
27,20:2
27,21:2
27,22:2
27,28:2

<end>

<optimal SALBP-1 value>
11


<rand seed>
467321153

